maximize

	+ 1 x_01

subject to

-343 x_01 - 343 x_02 - 343 x_03 - 343 x_04 - 343 x_05 - 343 x_06 - 514 x_07 - 514 x_08 - 514 x_09 - 514 x_10 - 514 x_11 - 514 x_12 - 514 x_13 - 514 x_14 >= -457

171 x_02 + 171 x_04 + 171 x_05 + 171 x_08 + 171 x_09 + 171 x_11 + 514 x_14 >= 57

171 x_02 + 171 x_04 + 171 x_05 + 171 x_07 + 171 x_10 + 171 x_12 + 514 x_13 >= 57

171 x_02 + 171 x_03 + 171 x_06 + 171 x_08 + 171 x_09 + 514 x_12 + 171 x_13 >= 57

171 x_02 + 171 x_03 + 171 x_06 + 171 x_07 + 171 x_10 + 514 x_11 + 171 x_14 >= 57

171 x_01 + 171 x_04 + 171 x_06 + 171 x_08 + 514 x_10 + 171 x_11 + 171 x_13 >= 57

171 x_01 + 171 x_04 + 171 x_06 + 171 x_07 + 514 x_09 + 171 x_12 + 171 x_14 >= 57

171 x_01 + 171 x_03 + 171 x_05 + 514 x_07 + 171 x_09 + 171 x_11 + 171 x_13 >= 57

171 x_01 + 171 x_03 + 171 x_05 + 514 x_08 + 171 x_10 + 171 x_12 + 171 x_14 >= 57

343 x_01 - 171 x_03 - 171 x_04 - 171 x_05 - 171 x_06 - 171 x_11 - 171 x_12 - 171 x_13 - 171 x_14 >= -114

-171 x_01 - 171 x_02 + 343 x_03 - 171 x_05 - 171 x_06 - 171 x_09 - 171 x_10 - 171 x_13 - 171 x_14 >= -114

-171 x_01 - 171 x_02 - 171 x_03 - 171 x_04 + 343 x_05 - 171 x_09 - 171 x_10 - 171 x_11 - 171 x_12 >= -114

-171 x_01 - 171 x_02 - 171 x_03 - 171 x_04 + 343 x_06 - 171 x_07 - 171 x_08 - 171 x_13 - 171 x_14 >= -114

-171 x_01 - 171 x_02 + 343 x_04 - 171 x_05 - 171 x_06 - 171 x_07 - 171 x_08 - 171 x_11 - 171 x_12 >= -114

343 x_02 - 171 x_03 - 171 x_04 - 171 x_05 - 171 x_06 - 171 x_07 - 171 x_08 - 171 x_09 - 171 x_10 >= -114

x_00 + x_01 + x_02 + x_03 + x_04 + x_05 + x_06 + x_07 + x_08 + x_09 + x_10 + x_11 + x_12 + x_13 + x_14 = 1

[0.375  x_00^2 - 0.25 x_00*x_01 + 0.375  x_01^2 - 0.25 x_00*x_02 - 0.25 x_01*x_02 + 0.375  x_02^2 - 0.25 x_00*x_03 - 0.25 x_01*x_03 - 0.25 x_02*x_03 + 0.375  x_03^2 - 0.25 x_00*x_04 - 0.25 x_01*x_04 + 0.25 x_02*x_04 + 0.25 x_03*x_04 + 0.375  x_04^2 - 0.25 x_00*x_05 - 0.25 x_01*x_05 + 0.25 x_02*x_05 + 0.25 x_03*x_05 - 0.25 x_04*x_05 + 0.375  x_05^2 + 0.25 x_00*x_06 + 0.25 x_01*x_06 - 0.25 x_02*x_06 - 0.25 x_03*x_06 - 0.25 x_04*x_06 - 0.25 x_05*x_06 + 0.375  x_06^2 + 0.25 x_00*x_07 + 0.25 x_01*x_07 - 0.25 x_02*x_07 - 0.25 x_03*x_07 - 0.25 x_04*x_07 - 0.25 x_05*x_07 - 0.25 x_06*x_07 + 0.375  x_07^2 - 0.25 x_00*x_08 + 0.25 x_01*x_08 - 0.25 x_02*x_08 + 0.25 x_03*x_08 - 0.25 x_04*x_08 + 0.25 x_05*x_08 + 0.25 x_06*x_08 - 0.25 x_07*x_08 + 0.375  x_08^2 + 0.25 x_00*x_09 - 0.25 x_01*x_09 + 0.25 x_02*x_09 - 0.25 x_03*x_09 + 0.25 x_04*x_09 - 0.25 x_05*x_09 - 0.25 x_06*x_09 + 0.25 x_07*x_09 - 0.25 x_08*x_09 + 0.375  x_09^2 - 0.25 x_00*x_10 + 0.25 x_01*x_10 - 0.25 x_02*x_10 + 0.25 x_03*x_10 + 0.25 x_04*x_10 - 0.25 x_05*x_10 - 0.25 x_06*x_10 + 0.25 x_07*x_10 - 0.25 x_08*x_10 - 0.25 x_09*x_10 + 0.375  x_10^2 + 0.25 x_00*x_11 - 0.25 x_01*x_11 + 0.25 x_02*x_11 - 0.25 x_03*x_11 - 0.25 x_04*x_11 + 0.25 x_05*x_11 + 0.25 x_06*x_11 - 0.25 x_07*x_11 - 0.25 x_08*x_11 - 0.25 x_09*x_11 - 0.25 x_10*x_11 + 0.375  x_11^2 - 0.25 x_00*x_12 + 0.25 x_01*x_12 + 0.25 x_02*x_12 - 0.25 x_03*x_12 - 0.25 x_04*x_12 + 0.25 x_05*x_12 - 0.25 x_06*x_12 + 0.25 x_07*x_12 - 0.25 x_08*x_12 - 0.25 x_09*x_12 + 0.25 x_10*x_12 + 0.25 x_11*x_12 + 0.375  x_12^2 + 0.25 x_00*x_13 - 0.25 x_01*x_13 - 0.25 x_02*x_13 + 0.25 x_03*x_13 + 0.25 x_04*x_13 - 0.25 x_05*x_13 + 0.25 x_06*x_13 - 0.25 x_07*x_13 - 0.25 x_08*x_13 - 0.25 x_09*x_13 + 0.25 x_10*x_13 + 0.25 x_11*x_13 - 0.25 x_12*x_13 + 0.375  x_13^2 + 0.25 x_00*x_14 - 0.25 x_01*x_14 - 0.25 x_02*x_14 + 0.25 x_03*x_14 - 0.25 x_04*x_14 + 0.25 x_05*x_14 - 0.25 x_06*x_14 + 0.25 x_07*x_14 + 0.25 x_08*x_14 + 0.25 x_09*x_14 - 0.25 x_10*x_14 - 0.25 x_11*x_14 - 0.25 x_12*x_14 - 0.25 x_13*x_14 + 0.375  x_14^2 - 0.25 x_00*x_15 + 0.25 x_01*x_15 + 0.25 x_02*x_15 - 0.25 x_03*x_15 + 0.25 x_04*x_15 - 0.25 x_05*x_15 + 0.25 x_06*x_15 - 0.25 x_07*x_15 + 0.25 x_08*x_15 + 0.25 x_09*x_15 - 0.25 x_10*x_15 - 0.25 x_11*x_15 - 0.25 x_12*x_15 - 0.25 x_13*x_15 - 0.25 x_14*x_15 + 0.375  x_15^2] <= 100

bounds

	-228 <= x_00 <= 228
	-228 <= x_01 <= 228
	-228 <= x_02 <= 228
	-228 <= x_03 <= 228
	-228 <= x_04 <= 228
	-228 <= x_05 <= 228
	-228 <= x_06 <= 228
	-228 <= x_07 <= 228
	-228 <= x_08 <= 228
	-228 <= x_09 <= 228
	-228 <= x_10 <= 228
	-228 <= x_11 <= 228
	-228 <= x_12 <= 228
	-228 <= x_13 <= 228
	-228 <= x_14 <= 228

general

	x_00 
	x_01 
	x_02 
	x_03 
	x_04 
	x_05 
	x_06 
	x_07 
	x_08 
	x_09 
	x_10 
	x_11 
	x_12 
	x_13 
	x_14
 
end
